Instance: E135-07f.dat
Class:  5
  134 --- number of customers (no depot)
   28 --- number of vehicles
  422 --- number of items
Capacity - height - width of vehicles
  2210     40     20
Node - x - y - demand
    0    -6.0    15.0     0.0
    1     3.2     5.1    30.0
    2    24.6     8.3   226.0
    3    23.3     1.3    37.0
    4    27.8     8.3    24.0
    5    29.0     8.0    36.0
    6    31.0     8.0     1.0
    7    33.5    10.5    31.0
    8    30.0    10.5    24.0
    9    29.0    10.0    30.0
   10    26.5    11.7    24.0
   11    28.3    14.3    24.0
   12    27.0    14.3    32.0
   13    23.5    19.0    24.0
   14    26.0    20.0    24.0
   15    25.0    20.0    19.0
   16    20.5    19.0    24.0
   17   -20.0    13.0    18.0
   18   -21.0    14.0    36.0
   19   -30.0    30.0   115.0
   20    -5.0    30.0    24.0
   21     1.3    17.8    24.0
   22     1.8    13.8    61.0
   23     1.8    13.1    71.0
   24     2.0    13.6    36.0
   25     4.8    17.0    18.0
   26     7.0    15.0    30.0
   27     9.8    16.6    31.0
   28    11.4    14.5    36.0
   29    14.4    11.3    18.0
   30    11.0    12.0  1004.0
   31     9.3    10.7    18.0
   32     0.6     2.8    34.0
   33   -30.0   -10.0   504.0
   34     2.0     0.0    18.0
   35    14.5     1.0    39.0
   36    15.0     1.8    24.0
   37    17.2     2.4    37.0
   38    17.2     4.2    24.0
   39    18.2     4.4    99.0
   40    20.3     2.1    24.0
   41    22.8     3.1    24.0
   42    23.0     4.0    36.0
   43    20.8     4.0    30.0
   44    20.8     4.0    25.0
   45    18.5     6.4    24.0
   46   -14.0    16.0   122.0
   47    -0.5     6.9   196.0
   48     3.2     2.8   229.0
   49     5.6     1.8    83.0
   50     8.7     2.8    18.0
   51     9.0     3.3    24.0
   52     9.0     3.5   306.0
   53    11.2     3.3    18.0
   54    10.8     4.7    20.0
   55    11.5     4.6    18.0
   56    12.3     4.7    24.0
   57    12.3     5.5    22.0
   58    11.2     6.9    24.0
   59     6.5     9.7    18.0
   60     5.8     8.5    18.0
   61     7.2     6.0    24.0
   62     7.2     4.0    24.0
   63    -4.0    -4.0    30.0
   64    -3.0     1.2    24.0
   65   -40.0    49.0    40.0
   66   -15.0    10.0   166.0
   67   -11.0   -10.0   254.0
   68   -25.0   -20.0   187.0
   69   -25.0   -35.0    94.0
   70   -24.0   -35.0    17.0
   71   -18.0    10.0   285.0
   72    -2.0    10.0    24.0
   73    -4.0     8.0    24.0
   74    -3.0     5.0   205.0
   75     2.1     6.2    23.0
   76    -1.7     3.0    28.0
   77    -3.0     2.0    51.0
   78    -7.0     0.0    49.0
   79    -3.0    -6.0    19.0
   80   -30.0   -11.0   262.0
   81   -62.0   -10.0   120.0
   82    -8.0    30.0   266.0
   83     1.0    60.0   704.0
   84    10.0    52.0    38.0
   85    10.0    52.0    18.0
   86    10.0    51.0    30.0
   87    16.0    29.0    25.0
   88    26.0    21.0    12.0
   89    16.0    21.0    18.0
   90    15.5    19.2    25.0
   91     0.0    16.5    35.0
   92    17.2    14.3    18.0
   93    16.5     7.8    12.0
   94    16.9     7.7    20.0
   95    18.0     2.0  1126.0
   96    16.2     4.0     9.0
   97    15.0     4.0    36.0
   98    15.0     3.0    12.0
   99    14.8     2.4    31.0
  100    14.5     3.0    96.0
  101    13.0     2.6    27.0
  102    11.8     3.0    54.0
  103    12.0     4.0   137.0
  104    12.8     3.6    12.0
  105    13.4     5.5    58.0
  106  -150.0     8.0   206.0
  107  -152.0     1.0   178.0
  108  -152.0     0.0   486.0
  109  -142.0   -31.0    36.0
  110   -78.0   -19.0   261.0
  111   -78.0   -18.0   135.0
  112   -78.0   -17.0   135.0
  113   -80.0   -14.0   373.0
  114  -118.0    22.0   535.0
  115  -107.0    30.0    42.0
  116   -85.0    14.0     9.0
  117   -78.0    15.0   110.0
  118   -15.0    16.0    36.0
  119   -62.0    32.0    18.0
  120  -120.0   -20.0   726.0
  121   -90.0   -22.0   187.0
  122   -79.0   -19.0    23.0
  123   -79.0   -18.5   134.0
  124   -79.0   -18.0    47.0
  125   -78.0   -17.5    51.0
  126   -79.0   -17.0    43.0
  127   -80.0   -17.0    79.0
  128   -80.0   -16.0   112.0
  129   -80.0   -15.0    91.0
  130   -48.0    37.0   232.0
  131   -85.0    15.0   483.0
  132   -62.0    -9.0   828.0
  133   -15.0    -4.0    11.0
  134    -1.0     3.2    12.0
Node - number of items - h - w for each item
    0   0
    1   1    5    4
    2   1   15    3
    3   5    9    5    7    4    8    3    4    3   19    2
    4   4   11    6    6    6   13    3    4    2
    5   2    4   10    6    8
    6   5    5   10    6    6    8    4    5    4    5    4
    7   4    5   10    5    8    5    3   16    2
    8   4    8   12    7    9   12    3    8    3
    9   1    7   11
   10   5    7   11    7    8    8    4   10    3    7    3
   11   2    7    4   22    3
   12   5    5   11    5    8    6    5   10    4   10    2
   13   4   11    6   19    3   19    3   12    2
   14   3    5    7    5    7    6    3
   15   3    5    6   11    5   23    3
   16   2   16    4    5    3
   17   2    5    7   16    4
   18   2    8   11   23    2
   19   2   18    4    6    4
   20   3    8   10    6    3   17    2
   21   5    7   11    5    6   24    3    6    2    5    2
   22   5    7   12    6   10    7    6   10    5    9    3
   23   3    5    7   10    4    9    2
   24   1   11    3
   25   5    5    6    6    5    4    5   19    4    9    2
   26   2    7    5    8    2
   27   4    7   10    5    8   18    3    6    2
   28   1    4    9
   29   4    8   12    7    5   16    4   21    3
   30   5   10    5   17    3    7    3    6    3    8    2
   31   5   13    3   11    3    7    3   10    2    7    2
   32   5    7    5    6    4    7    3    5    3   24    2
   33   3    5    7   10    5   23    3
   34   1    8    8
   35   5    5   11   11    4   11    3   10    3   11    2
   36   5    7    7    5    5   21    3   19    3    9    3
   37   1    6    3
   38   5    7    7    8    5   10    4    7    4    5    3
   39   3    7    6    8    5    8    3
   40   4    5   12    4    8   10    6   18    2
   41   1    8    5
   42   5    6    9    8    4   23    3   21    3   19    3
   43   3    6    9    6    7    8    2
   44   3    5    9    4    5    7    2
   45   2    6    4    7    3
   46   1   20    2
   47   4    6   11    6    5    8    3   15    2
   48   1    9    3
   49   5    6    9   10    5    8    5    9    4    9    3
   50   4    4   12    5    7   18    3    6    3
   51   3   10    5    8    4   14    3
   52   2   24    4    7    4
   53   2    6    5    7    3
   54   5    6   11    4    9    7    8    5    8   23    2
   55   3    5    6    4    6   17    2
   56   1   11    5
   57   4    7   11    5    7    9    2    7    2
   58   4    7   11    5    7    5    3    5    2
   59   4    5   11   19    3    5    3    8    2
   60   2    5   11   10    4
   61   4    8   11   10    3    7    3    4    2
   62   4    8    9   16    4    9    3    6    3
   63   1    7    6
   64   2    8    5    5    3
   65   4    7   12   12    5   11    3    8    2
   66   2    8    9    8    3
   67   2    5    4    6    2
   68   2    4   12    7    3
   69   1    8    4
   70   2   19    4    7    4
   71   4    8    6    7    5   11    3    8    2
   72   1    7    4
   73   3   12    6   20    4   12    3
   74   4    5   10    4    5   23    3   10    3
   75   1    4    6
   76   4    6    5    6    5   10    4    8    3
   77   3    7    5   22    3    8    3
   78   3    7    7   10    3    7    3
   79   4    6   12   22    4    7    4    5    4
   80   4    8   10    5    7    9    4    9    2
   81   4    5   12    8    5    5    5    9    3
   82   5   11    5   14    3    9    3   12    2   10    2
   83   2    5    8   19    3
   84   2   15    3   17    2
   85   2    7    6   16    2
   86   1    8    3
   87   4   11    6    8    5    5    5    8    2
   88   1    9    3
   89   2    5    7   10    2
   90   4    7    8    7    7    9    6   10    3
   91   3   10    5    5    5   19    3
   92   5    7    5    5    4    5    3   17    2    7    2
   93   5    7   10    4    7    5    5   12    4    7    3
   94   1    6    7
   95   5   11    6    7    6   10    5    7    5    5    2
   96   1    6    5
   97   3    8    5   10    3    8    2
   98   5    8   10    6   10    8    3    8    2    5    2
   99   2   18    3    9    3
  100   4   12    5   20    4   12    4   10    4
  101   4    6    6   10    4   20    3    6    2
  102   1    5    4
  103   2    6    9    6    5
  104   1    6    3
  105   1    9    4
  106   3    6    4    4    4   19    3
  107   5    6    5   21    4    6    4   21    3    7    3
  108   5    5    6   11    5   12    4    4    4   19    2
  109   4    7   10    7    7    6    5   15    2
  110   2    5    6   16    3
  111   3   14    4   17    3    4    3
  112   3   11    6    8    5    7    3
  113   3    7    9   16    4   11    4
  114   1   24    3
  115   5    4    6   10    5   11    3   10    3   10    3
  116   5    7   11    6    6    6    5   13    4   10    3
  117   5    5    8   17    4   14    4    9    3   11    2
  118   5    6   11    5    5   20    3   16    3   13    3
  119   3    4    4   13    3    7    3
  120   4    6    5   16    3    6    3   22    2
  121   4    8    4    7    4   18    3    5    3
  122   3    5    8    8    6   11    3
  123   5    5   10    6    8   11    4    8    4    7    3
  124   3    6   10    9    4    4    3
  125   4    6    7   10    5    6    3    6    3
  126   3    7    7   11    4    7    3
  127   5   12    5    4    4    4    4    6    3    6    3
  128   2    5   12    8    5
  129   3    7   12    6    5    7    2
  130   4    9    5    7    4    7    3    5    3
  131   4   11    5   16    3   12    3   11    3
  132   3    9    6    5    5   11    2
  133   5    7   11    8    7    5    5    5    3   18    2
  134   2    7   11    5    8
